l=1323;
a=5;
setup_costs=[|3,1,1,2,0,
|0,0,2,0,1,
|3,1,0,3,2,
|3,2,3,1,2,
|1,2,1,3,3,
|0,0,0,0,0|];
setup_times=[|1,2,1,2,2,
|0,0,3,0,3,
|2,1,0,1,1,
|3,1,0,3,1,
|2,0,1,1,3,
|0,0,0,0,0|];
m=5;
min_cap=[0,0,0,0,0];
max_cap=[70,68,47,60,46];

initState=[1,1,3,1,5];
s=5;
m_a_s = [|0,0,0,116,642,
|262,277,845,983,1213,
|0,0,0,0,191,
|0,0,0,41,1081,
|0,0,115,314,1018|];
m_a_e = [|0,0,0,571,1209,
|275,815,951,1211,1304,
|0,0,0,0,1207,
|0,0,0,1016,1273,
|0,0,268,960,1314|];
n=100;
eligible_machine = [{4,3,5},
{2,1,3,4},
{1,3,4},
{5,2},
{3,1,4,5},
{3,1,2,4},
{3,1,4,5},
{2,1,3},
{5,1},
{3,2,5},
{2,3,4,5},
{1,3,4},
{4,2,3,5},
{3,2},
{1,2,3,4},
{2,1,4},
{3,1,2,4},
{1,4},
{1,2,3,4,5},
{5},
{2,3,5},
{3,1,2,4,5},
{5,1,2,3},
{2,1,3,5},
{1,2},
{1},
{2},
{2,3,4,5},
{2,1,3,4},
{5,2,4},
{2,1},
{5,1,2},
{1,3,5},
{4,5},
{2,1},
{2,3,4,5},
{1,4},
{5,2,3},
{1,3,5},
{5,1},
{2,1},
{4,1,3,5},
{4,5},
{3,1,2},
{1,2,4},
{1,2,3,4,5},
{5,3,4},
{3,1},
{3,2},
{5,4},
{2,5},
{2,1},
{2,4},
{1,2,3,4,5},
{2,1,5},
{1,2,3,4},
{3,2,5},
{3,1,4,5},
{4,1,5},
{4,1,3},
{4,1,3},
{5,2,3},
{2,1,3},
{3,1,2},
{2,4,5},
{3,1,4,5},
{3,1,4},
{4,1},
{2,3,4,5},
{2,1,3,4,5},
{5,1,2,3,4},
{1,2,4,5},
{4,1,5},
{4,1,5},
{2,5},
{4,1,2,5},
{5,2,3,4},
{4,1,2,5},
{3,5},
{1,3},
{4,3,5},
{3,2,5},
{1,3,4},
{2,1,3,4},
{1,5},
{4,2,3},
{3},
{2,5},
{1,2},
{5,1},
{5,3},
{2,1,3,5},
{5,1},
{4,1,5},
{2,4,5},
{3,1,2,4,5},
{4,3},
{5,3},
{1,3,5},
{1,2,3,4,5}];
earliest_start=[63,107,135,39,1,39,239,241,71,2,90,218,31,162,18,101,22,162,92,187,37,8,157,16,5,12,104,8,100,80,53,47,212,234,193,133,111,251,36,188,32,20,53,173,18,24,12,65,243,128,41,175,182,70,67,54,202,118,34,241,188,230,141,244,201,42,6,50,222,137,242,24,126,157,154,16,207,236,251,233,0,39,18,224,38,131,118,142,167,138,183,246,217,47,252,55,132,62,224,228];
latest_end=[71,128,144,55,9,43,245,248,100,50,100,232,53,182,37,133,39,165,102,188,50,27,185,65,20,29,106,16,105,92,57,54,218,246,196,155,134,269,37,201,39,22,63,204,28,38,25,69,252,134,51,178,196,88,96,67,225,140,55,243,207,240,177,258,219,49,27,57,245,151,249,28,127,163,177,32,215,247,258,236,47,67,25,233,69,135,120,163,195,154,214,250,235,49,301,59,141,66,225,241];
min_time=[3,5,4,5,8,4,6,2,7,10,5,9,6,6,7,9,9,2,6,1,7,7,7,10,8,7,1,3,4,4,1,3,4,3,1,7,7,6,1,3,5,2,4,9,6,8,8,1,2,3,5,1,3,9,6,7,8,5,7,1,4,3,8,3,9,2,6,4,5,10,3,4,1,4,6,6,3,9,4,1,10,10,2,2,10,1,1,5,7,5,10,2,10,1,10,3,4,1,1,5];
max_time=[10,10,10,10,10,10,10,10,10,10,10,10,10,10,10,10,10,10,10,10,10,10,10,10,10,10,10,10,10,10,10,10,10,10,10,10,10,10,10,10,10,10,10,10,10,10,10,10,10,10,10,10,10,10,10,10,10,10,10,10,10,10,10,10,10,10,10,10,10,10,10,10,10,10,10,10,10,10,10,10,10,10,10,10,10,10,10,10,10,10,10,10,10,10,10,10,10,10,10,10];
size=[13,18,17,2,14,16,3,18,6,2,18,9,1,4,2,10,14,6,13,10,3,11,13,18,13,20,10,18,1,13,1,11,20,14,15,2,3,8,14,1,4,7,17,2,10,6,12,4,10,19,10,2,15,10,20,14,7,18,9,11,10,7,2,4,15,7,19,7,20,2,11,10,1,3,3,16,2,18,10,15,11,9,15,3,7,10,13,3,1,14,20,10,3,5,10,12,10,9,12,7];
attribute=[2,3,5,1,1,2,2,1,2,1,5,4,4,3,5,5,5,4,3,5,2,5,1,2,5,4,1,3,2,4,5,3,1,5,3,5,4,3,3,3,1,5,1,2,5,1,3,4,3,3,2,1,1,4,2,5,1,1,2,1,4,2,4,1,4,1,5,4,4,3,5,5,4,2,2,2,1,4,2,2,2,2,3,1,4,5,3,4,5,2,5,2,5,5,4,4,4,3,2,5];

upper_bound_integer_objective=15322103;
mult_factor_total_runtime=30401;
mult_factor_finished_toolate=301;
mult_factor_total_setuptimes=0;
mult_factor_total_setupcosts=1;
running_time_bound=503;
min_duration=1;
max_duration=10;
max_setup_time=3;
max_setup_cost=3;
